num_offers = 30;
num_halls = 10;
start=[22,53,29,6,40,24,49,64,29,6,24,69,33,32,14,1,28,45,18,21,15,26,12,25,26,31,46,33,21,39];
end=[72,73,33,20,49,33,76,70,59,95,66,73,61,71,56,23,59,98,58,44,29,57,18,82,70,92,54,35,55,58];
price=[3563,2056,227,369,482,393,2685,111,2953,1073,4165,478,1861,1175,1755,1077,621,3495,3887,1913,436,1973,653,1302,2667,3555,322,71,2929,1703];
requirement=[875,791,965,336,347,682,520,696,653,248,626,907,314,940,695,284,642,898,267,583,985,828,761,653,367,527,596,459,365,810];
capacity=[539,906,801,903,325,805,232,301,656,961];
